g3 0 1 0	# problem osbornea
 5 0 1 0 0	# vars, constraints, objectives, ranges, eqns
 0 1	# nonlinear constraints, objectives
 0 0	# network constraints: nonlinear, linear
 0 5 0	# nonlinear vars in constraints, objectives, both
 0 0 0 1	# linear network variables; functions; arith, flags
 0 0 0 0 0	# discrete variables: binary, integer, nonlinear (b,c,o)
 0 5	# nonzeros in Jacobian, gradients
 0 0	# max name lengths: constraints, variables
 0 0 0 0 0	# common exprs: b,c,o,c1,o1
b
3
3
3
3
3
x5
0 0.5
1 1.5
2 -1
3 0.01
4 0.02
O0 0
o54
33
o5
o1
o1
o1
n0.844
v0
v1
v2
n2
o5
o1
o1
o1
n0.908
v0
o2
v1
o44
o16
o2
n10
v3
o2
v2
o44
o16
o2
n10
v4
n2
o5
o1
o1
o1
n0.932
v0
o2
v1
o44
o16
o2
n20
v3
o2
v2
o44
o16
o2
n20
v4
n2
o5
o1
o1
o1
n0.936
v0
o2
v1
o44
o16
o2
n30
v3
o2
v2
o44
o16
o2
n30
v4
n2
o5
o1
o1
o1
n0.925
v0
o2
v1
o44
o16
o2
n40
v3
o2
v2
o44
o16
o2
n40
v4
n2
o5
o1
o1
o1
n0.908
v0
o2
v1
o44
o16
o2
n50
v3
o2
v2
o44
o16
o2
n50
v4
n2
o5
o1
o1
o1
n0.881
v0
o2
v1
o44
o16
o2
n60
v3
o2
v2
o44
o16
o2
n60
v4
n2
o5
o1
o1
o1
n0.85
v0
o2
v1
o44
o16
o2
n70
v3
o2
v2
o44
o16
o2
n70
v4
n2
o5
o1
o1
o1
n0.818
v0
o2
v1
o44
o16
o2
n80
v3
o2
v2
o44
o16
o2
n80
v4
n2
o5
o1
o1
o1
n0.784
v0
o2
v1
o44
o16
o2
n90
v3
o2
v2
o44
o16
o2
n90
v4
n2
o5
o1
o1
o1
n0.751
v0
o2
v1
o44
o16
o2
n100
v3
o2
v2
o44
o16
o2
n100
v4
n2
o5
o1
o1
o1
n0.718
v0
o2
v1
o44
o16
o2
n110
v3
o2
v2
o44
o16
o2
n110
v4
n2
o5
o1
o1
o1
n0.685
v0
o2
v1
o44
o16
o2
n120
v3
o2
v2
o44
o16
o2
n120
v4
n2
o5
o1
o1
o1
n0.658
v0
o2
v1
o44
o16
o2
n130
v3
o2
v2
o44
o16
o2
n130
v4
n2
o5
o1
o1
o1
n0.628
v0
o2
v1
o44
o16
o2
n140
v3
o2
v2
o44
o16
o2
n140
v4
n2
o5
o1
o1
o1
n0.603
v0
o2
v1
o44
o16
o2
n150
v3
o2
v2
o44
o16
o2
n150
v4
n2
o5
o1
o1
o1
n0.58
v0
o2
v1
o44
o16
o2
n160
v3
o2
v2
o44
o16
o2
n160
v4
n2
o5
o1
o1
o1
n0.558
v0
o2
v1
o44
o16
o2
n170
v3
o2
v2
o44
o16
o2
n170
v4
n2
o5
o1
o1
o1
n0.538
v0
o2
v1
o44
o16
o2
n180
v3
o2
v2
o44
o16
o2
n180
v4
n2
o5
o1
o1
o1
n0.522
v0
o2
v1
o44
o16
o2
n190
v3
o2
v2
o44
o16
o2
n190
v4
n2
o5
o1
o1
o1
n0.506
v0
o2
v1
o44
o16
o2
n200
v3
o2
v2
o44
o16
o2
n200
v4
n2
o5
o1
o1
o1
n0.49
v0
o2
v1
o44
o16
o2
n210
v3
o2
v2
o44
o16
o2
n210
v4
n2
o5
o1
o1
o1
n0.478
v0
o2
v1
o44
o16
o2
n220
v3
o2
v2
o44
o16
o2
n220
v4
n2
o5
o1
o1
o1
n0.467
v0
o2
v1
o44
o16
o2
n230
v3
o2
v2
o44
o16
o2
n230
v4
n2
o5
o1
o1
o1
n0.457
v0
o2
v1
o44
o16
o2
n240
v3
o2
v2
o44
o16
o2
n240
v4
n2
o5
o1
o1
o1
n0.448
v0
o2
v1
o44
o16
o2
n250
v3
o2
v2
o44
o16
o2
n250
v4
n2
o5
o1
o1
o1
n0.438
v0
o2
v1
o44
o16
o2
n260
v3
o2
v2
o44
o16
o2
n260
v4
n2
o5
o1
o1
o1
n0.431
v0
o2
v1
o44
o16
o2
n270
v3
o2
v2
o44
o16
o2
n270
v4
n2
o5
o1
o1
o1
n0.424
v0
o2
v1
o44
o16
o2
n280
v3
o2
v2
o44
o16
o2
n280
v4
n2
o5
o1
o1
o1
n0.42
v0
o2
v1
o44
o16
o2
n290
v3
o2
v2
o44
o16
o2
n290
v4
n2
o5
o1
o1
o1
n0.414
v0
o2
v1
o44
o16
o2
n300
v3
o2
v2
o44
o16
o2
n300
v4
n2
o5
o1
o1
o1
n0.411
v0
o2
v1
o44
o16
o2
n310
v3
o2
v2
o44
o16
o2
n310
v4
n2
o5
o1
o1
o1
n0.406
v0
o2
v1
o44
o16
o2
n320
v3
o2
v2
o44
o16
o2
n320
v4
n2
k4
0
0
0
0
G0 5
0 0
1 0
2 0
3 0
4 0
